37
raw_data/mm-rcpsp/MMLIB50/J508_2.mm
Time limit set to 60 seconds
Running CP solver
/home/omastto1/General-Optimization-Solver/src/solvers/mmrcpsp.py:42(stream:276:6): Warning: Cumulative expression 'pulse': height is zero, expression is zero everywhere.
                                                                                               VarCumulAtom_419 = pulse(task_0_mode_0, 0)
/home/omastto1/General-Optimization-Solver/src/solvers/mmrcpsp.py:42(stream:276:3906): Warning: Cumulative expression 'pulse': height is zero, expression is zero everywhere.
                                                                                                  VarCumulAtom_570 = pulse(task_51_mode_0, 0)
/home/omastto1/General-Optimization-Solver/src/solvers/mmrcpsp.py:42(stream:277:6): Warning: Cumulative expression 'pulse': height is zero, expression is zero everywhere.
                                                                                               VarCumulAtom_574 = pulse(task_0_mode_0, 0)
/home/omastto1/General-Optimization-Solver/src/solvers/mmrcpsp.py:42(stream:277:3916): Warning: Cumulative expression 'pulse': height is zero, expression is zero everywhere.
                                                                                                  VarCumulAtom_725 = pulse(task_51_mode_0, 0)
 ! --------------------------------------------------- CP Optimizer 20.1.0.0 --
 ! Minimization problem - 205 variables, 279 constraints
 ! TimeLimit            = 60
 ! Workers              = 14
 ! LogVerbosity         = Terse
 ! Initial process time : 0.01s (0.01s extraction + 0.00s propagation)
 !  . Log search space  : 524.5 (before), 524.5 (after)
 !  . Memory usage      : 1.3 MB (before), 1.3 MB (after)
 ! Using parallel search with 14 workers.
 ! ----------------------------------------------------------------------------
 !          Best Branches  Non-fixed    W       Branch decision
                        0        205                 -
 + New bound is 17
 ! Using iterative diving.
 ! Using temporal relaxation.
 *            57      109  0.88s        1      (gap is 70.18%)
 *            54      274  0.88s        1      (gap is 68.52%)
 *            52      382  0.88s        1      (gap is 67.31%)
 *            49      490  0.88s        1      (gap is 65.31%)
 *            48      598  0.88s        1      (gap is 64.58%)
 *            47      848  0.88s        1      (gap is 63.83%)
 *            45      996  0.88s        1      (gap is 62.22%)
 *            44     1145  0.88s        1      (gap is 61.36%)
 *            43     1324  0.88s        1      (gap is 60.47%)
 *            42     1354  0.88s        3      (gap is 59.52%)
 *            41     1349  0.88s        5      (gap is 58.54%)
              41     1726          2    1   F        -
 + New bound is 18 (gap is 56.10%)
 ! Using failure-directed search.
 *            40     2830  1.62s        1      (gap is 55.00%)
 *            38     2440  1.62s        3      (gap is 52.63%)
 *            37     2522  1.62s        3      (gap is 51.35%)
 *            36     7547  2.38s        9      (gap is 50.00%)
 *            35     7967  2.38s        9      (gap is 48.57%)
 *            34    15248  4.45s        9      (gap is 47.06%)
              34     6969        106    1   F          presenceOf(task_31_mode_2)
 + New bound is 20 (gap is 41.18%)
 ! Time = 5.80s, Average fail depth = 30, Memory usage = 23.7 MB
 ! Current bound is 20 (gap is 41.18%)
 !          Best Branches  Non-fixed    W       Branch decision
 *            33    28713  9.24s        2      (gap is 39.39%)
 *            32     154k  50.63s       9      (gap is 37.50%)
 ! ----------------------------------------------------------------------------
 ! Search terminated by limit, 19 solutions found.
 ! Best objective         : 32 (gap is 37.50%)
 ! Best bound             : 20
 ! ----------------------------------------------------------------------------
 ! Number of branches     : 5206319
 ! Number of fails        : 887954
 ! Total memory usage     : 19.6 MB (19.4 MB CP Optimizer + 0.2 MB Concert)
 ! Time spent in solve    : 60.03s (60.02s engine + 0.01s extraction)
 ! Search speed (br. / s) : 86757.5
 ! ----------------------------------------------------------------------------
task_0: (start=0, end=0, size=0, length=0)
Task 0 is scheduled in mode 0 from 0 to 0
task_1: (start=0, end=4, size=4, length=4)
Task 1 is scheduled in mode 1 from 0 to 4
task_2: (start=0, end=1, size=1, length=1)
Task 2 is scheduled in mode 0 from 0 to 1
task_3: (start=1, end=10, size=9, length=9)
Task 3 is scheduled in mode 2 from 1 to 10
task_4: (start=1, end=4, size=3, length=3)
Task 4 is scheduled in mode 0 from 1 to 4
task_5: (start=1, end=10, size=9, length=9)
Task 5 is scheduled in mode 2 from 1 to 10
task_6: (start=0, end=4, size=4, length=4)
Task 6 is scheduled in mode 1 from 0 to 4
task_7: (start=6, end=7, size=1, length=1)
Task 7 is scheduled in mode 0 from 6 to 7
task_8: (start=4, end=7, size=3, length=3)
Task 8 is scheduled in mode 0 from 4 to 7
task_9: (start=7, end=15, size=8, length=8)
Task 9 is scheduled in mode 1 from 7 to 15
task_10: (start=1, end=9, size=8, length=8)
Task 10 is scheduled in mode 2 from 1 to 9
task_11: (start=4, end=12, size=8, length=8)
Task 11 is scheduled in mode 2 from 4 to 12
task_12: (start=0, end=1, size=1, length=1)
Task 12 is scheduled in mode 0 from 0 to 1
task_13: (start=0, end=9, size=9, length=9)
Task 13 is scheduled in mode 2 from 0 to 9
task_14: (start=0, end=4, size=4, length=4)
Task 14 is scheduled in mode 0 from 0 to 4
task_15: (start=2, end=6, size=4, length=4)
Task 15 is scheduled in mode 1 from 2 to 6
task_16: (start=10, end=11, size=1, length=1)
Task 16 is scheduled in mode 0 from 10 to 11
task_17: (start=10, end=18, size=8, length=8)
Task 17 is scheduled in mode 2 from 10 to 18
task_18: (start=4, end=10, size=6, length=6)
Task 18 is scheduled in mode 2 from 4 to 10
task_19: (start=7, end=14, size=7, length=7)
Task 19 is scheduled in mode 2 from 7 to 14
task_20: (start=0, end=2, size=2, length=2)
Task 20 is scheduled in mode 0 from 0 to 2
task_21: (start=20, end=22, size=2, length=2)
Task 21 is scheduled in mode 0 from 20 to 22
task_22: (start=15, end=17, size=2, length=2)
Task 22 is scheduled in mode 0 from 15 to 17
task_23: (start=0, end=1, size=1, length=1)
Task 23 is scheduled in mode 0 from 0 to 1
task_24: (start=11, end=18, size=7, length=7)
Task 24 is scheduled in mode 2 from 11 to 18
task_25: (start=12, end=21, size=9, length=9)
Task 25 is scheduled in mode 2 from 12 to 21
task_26: (start=16, end=22, size=6, length=6)
Task 26 is scheduled in mode 1 from 16 to 22
task_27: (start=9, end=16, size=7, length=7)
Task 27 is scheduled in mode 2 from 9 to 16
task_28: (start=14, end=23, size=9, length=9)
Task 28 is scheduled in mode 2 from 14 to 23
task_29: (start=1, end=11, size=10, length=10)
Task 29 is scheduled in mode 2 from 1 to 11
task_30: (start=11, end=20, size=9, length=9)
Task 30 is scheduled in mode 2 from 11 to 20
task_31: (start=17, end=20, size=3, length=3)
Task 31 is scheduled in mode 2 from 17 to 20
task_32: (start=7, end=17, size=10, length=10)
Task 32 is scheduled in mode 2 from 7 to 17
task_33: (start=25, end=31, size=6, length=6)
Task 33 is scheduled in mode 1 from 25 to 31
task_34: (start=31, end=32, size=1, length=1)
Task 34 is scheduled in mode 0 from 31 to 32
task_35: (start=22, end=25, size=3, length=3)
Task 35 is scheduled in mode 0 from 22 to 25
task_36: (start=22, end=32, size=10, length=10)
Task 36 is scheduled in mode 2 from 22 to 32
task_37: (start=23, end=29, size=6, length=6)
Task 37 is scheduled in mode 2 from 23 to 29
task_38: (start=23, end=32, size=9, length=9)
Task 38 is scheduled in mode 2 from 23 to 32
task_39: (start=26, end=30, size=4, length=4)
Task 39 is scheduled in mode 1 from 26 to 30
task_40: (start=22, end=32, size=10, length=10)
Task 40 is scheduled in mode 2 from 22 to 32
task_41: (start=18, end=20, size=2, length=2)
Task 41 is scheduled in mode 1 from 18 to 20
task_42: (start=30, end=32, size=2, length=2)
Task 42 is scheduled in mode 0 from 30 to 32
task_43: (start=20, end=30, size=10, length=10)
Task 43 is scheduled in mode 2 from 20 to 30
task_44: (start=25, end=32, size=7, length=7)
Task 44 is scheduled in mode 2 from 25 to 32
task_45: (start=30, end=31, size=1, length=1)
Task 45 is scheduled in mode 0 from 30 to 31
task_46: (start=17, end=22, size=5, length=5)
Task 46 is scheduled in mode 1 from 17 to 22
task_47: (start=21, end=30, size=9, length=9)
Task 47 is scheduled in mode 2 from 21 to 30
task_48: (start=20, end=26, size=6, length=6)
Task 48 is scheduled in mode 1 from 20 to 26
task_49: (start=22, end=32, size=10, length=10)
Task 49 is scheduled in mode 2 from 22 to 32
task_50: (start=18, end=25, size=7, length=7)
Task 50 is scheduled in mode 2 from 18 to 25
task_51: (start=32, end=32, size=0, length=0)
Task 51 is scheduled in mode 0 from 32 to 32
Feasible solution found
Objective value: 32
Solution is 60.0 % worse than the lower bound.
